100
150
100
100
100
98
98
97
97
96
94
92
90
87
86
84
84
83
83
81
81
81
81
80
77
77
77
75
74
74
74
73
70
69
69
68
67
66
66
65
65
64
63
62
62
61
60
59
57
57
57
57
56
56
54
52
50
50
47
45
43
43
43
40
38
37
37
36
36
35
35
33
33
32
31
31
29
27
27
24
23
19
18
16
14
13
13
12
12
11
10
9
8
8
8
4
4
4
3
2
2
1
